nNurses = 78;
nHours = 26;
minHours = 6;
maxHours = 11;
maxConsec = 7;
maxPresence = 16;
demand = [29, 32, 29, 32, 33, 28, 30, 32, 29, 31, 28, 25, 27, 25, 25, 29, 28, 33, 32, 30, 27, 26, 31, 27, 28, 32];
